[[54, 19, 53, 14, 59, 11, 66, 65, 38, 31, 10, 58, 72, 12, 40, 39, 9, 32, 25, 55, 50], [18, 24, 49, 44, 3, 51, 17, 68, 6, 33, 16, 63, 23, 56, 41, 43, 42, 64, 22, 73, 62, 28], [2, 74, 30, 48, 21, 61, 47, 69, 36, 71, 60, 70, 20, 37, 5, 15, 57, 29, 13, 27, 45, 52, 34, 4, 75, 76, 26, 67, 46, 7, 8, 35]]